# Solution for model combustion_srl_ilp
# Objective value = 5.2850771017075555e+00
Z_324_4_0 0
Z_324_4_1 0
Z_324_4_2 0
Z_324_4_3 0
Z_324_4_4 1
Z_324_3_0 0
Z_324_3_1 0
Z_324_3_2 0
Z_324_3_3 0
Z_324_3_4 1
Z_324_1_0 0
Z_324_1_1 0
Z_324_1_2 0
Z_324_1_3 0
Z_324_1_4 1
Z_324_0_0 0
Z_324_0_1 0
Z_324_0_2 0
Z_324_0_3 0
Z_324_0_4 1
Z_324_5_0 0
Z_324_5_1 0
Z_324_5_2 0
Z_324_5_3 1
Z_324_5_4 0
Z_324_2_0 0
Z_324_2_1 0
Z_324_2_2 0
Z_324_2_3 0
Z_324_2_4 1
Z_326_0_0 0
Z_326_0_1 1
Z_326_0_2 0
Z_326_0_3 0
Z_326_0_4 0
Z_52_0_0 0
Z_52_0_1 1
Z_52_0_2 0
Z_52_0_3 0
Z_52_0_4 0
